35 35
22
3 3 18 29
3 4 24 17
5 3 14 32
6 3 18 7
3 7 24 21
8 3 19 32
9 3 26 0
3 10 24 7
12 3 14 0
3 19 18 10
3 22 21 10
3 4 24 28
4 4 31 7
5 4 18 3
4 6 14 3
4 7 27 24
8 4 27 31
12 4 23 3
4 17 27 7
4 20 31 11
4 23 14 9
14 35 0 0
